c Created with the Wolfram Language : www.wolfram.com
c 
p edge 100 257
e 6 8
e 1 11
e 5 11
e 8 13
e 10 14
e 10 15
e 8 17
e 12 18
e 17 19
e 1 20
e 2 20
e 7 20
e 10 20
e 6 22
e 15 22
e 16 24
e 6 26
e 9 26
e 2 27
e 20 27
e 6 28
e 12 28
e 4 29
e 19 29
e 24 29
e 23 31
e 11 32
e 15 32
e 16 32
e 20 32
e 29 32
e 27 33
e 11 36
e 12 36
e 16 36
e 13 38
e 28 38
e 35 38
e 26 40
e 28 40
e 24 41
e 28 41
e 38 41
e 8 42
e 26 42
e 2 43
e 4 43
e 20 43
e 35 44
e 3 45
e 10 45
e 28 47
e 32 47
e 36 47
e 9 48
e 25 48
e 26 48
e 47 48
e 32 49
e 20 50
e 44 50
e 6 51
e 21 51
e 17 52
e 48 52
e 18 53
e 19 53
e 35 53
e 45 53
e 48 53
e 16 54
e 14 55
e 24 55
e 36 55
e 38 55
e 4 56
e 6 56
e 19 56
e 29 56
e 56 57
e 10 58
e 29 58
e 33 58
e 56 58
e 9 59
e 31 59
e 33 60
e 57 60
e 59 60
e 15 61
e 32 61
e 54 61
e 5 62
e 22 62
e 24 62
e 39 62
e 52 62
e 44 63
e 62 63
e 16 64
e 48 64
e 57 65
e 13 66
e 36 66
e 37 66
e 43 66
e 60 66
e 61 66
e 36 67
e 3 68
e 60 68
e 10 69
e 26 69
e 68 69
e 11 70
e 42 70
e 46 70
e 4 71
e 10 71
e 16 71
e 40 71
e 49 71
e 53 71
e 63 71
e 31 72
e 46 72
e 29 73
e 65 73
e 71 73
e 17 74
e 37 74
e 49 74
e 62 74
e 72 74
e 8 75
e 23 75
e 32 75
e 45 75
e 49 75
e 56 75
e 58 75
e 71 75
e 4 76
e 15 76
e 30 76
e 35 76
e 48 76
e 59 76
e 21 77
e 37 77
e 42 77
e 56 77
e 71 77
e 30 78
e 39 78
e 49 78
e 70 78
e 74 78
e 17 79
e 27 79
e 28 79
e 29 79
e 34 79
e 41 79
e 76 79
e 77 79
e 43 80
e 37 81
e 38 81
e 39 81
e 40 81
e 8 82
e 42 82
e 52 82
e 76 82
e 77 82
e 57 83
e 66 83
e 70 83
e 73 83
e 79 83
e 29 84
e 63 84
e 5 85
e 50 85
e 64 85
e 67 85
e 71 85
e 74 85
e 22 86
e 48 86
e 65 86
e 77 86
e 36 87
e 37 87
e 49 87
e 24 88
e 29 88
e 4 89
e 10 89
e 12 89
e 24 89
e 57 89
e 11 90
e 39 90
e 43 90
e 87 90
e 25 91
e 48 92
e 62 92
e 63 92
e 79 92
e 82 92
e 8 93
e 27 93
e 29 93
e 34 93
e 46 93
e 51 93
e 8 94
e 34 94
e 36 94
e 43 94
e 44 94
e 46 94
e 77 94
e 88 94
e 21 95
e 22 95
e 26 95
e 40 95
e 45 95
e 70 95
e 88 95
e 8 96
e 34 96
e 35 96
e 60 96
e 86 96
e 24 97
e 73 97
e 90 97
e 1 98
e 17 98
e 21 98
e 26 98
e 68 98
e 74 98
e 79 98
e 16 99
e 18 99
e 58 99
e 95 99
e 27 100
e 29 100
e 72 100
e 94 100
